2 100 1226
9 7 6 3 5 2 3 8 1 4
1 1
8
2
0 35.0 35.0 0.0 0.0 0 230
2 41.0 49.0 10.0 10.0 0 204 64 0 0 1 0 0 1 0 1 0 1
3 35.0 17.0 10.0 7.0 0 202 20 0 1 0 0 0 1 0 1 0 1
4 55.0 45.0 10.0 13.0 0 197 64 0 0 1 1 0 0 0 1 0 1
5 55.0 20.0 10.0 19.0 149 159 0 1 0 0 1 0 1 0 0 0 0
6 15.0 30.0 10.0 26.0 0 199 11 0 0 0 0 1 0 0 0 1 0
7 25.0 30.0 10.0 3.0 0 208 23 1 0 0 1 0 0 0 0 1 1
8 20.0 50.0 10.0 5.0 0 198 9 1 1 0 0 0 0 0 0 0 0
9 10.0 43.0 10.0 9.0 95 105 83 1 1 0 0 0 0 0 1 0 0
10 55.0 60.0 10.0 16.0 97 107 71 0 0 0 0 1 0 0 0 0 1
11 30.0 60.0 10.0 16.0 0 194 17 0 0 1 1 1 1 0 0 0 0
12 20.0 65.0 10.0 12.0 67 77 99 0 1 0 1 0 0 1 0 0 0
13 50.0 35.0 10.0 19.0 0 205 14 1 0 1 0 0 0 0 0 0 0
14 30.0 25.0 10.0 23.0 159 169 42 0 1 1 1 0 0 0 0 1 1
15 15.0 10.0 10.0 20.0 0 187 83 1 0 0 0 1 0 0 1 1 0
16 30.0 5.0 10.0 8.0 61 71 66 1 0 0 0 0 0 0 1 0 0
17 10.0 20.0 10.0 19.0 0 190 66 0 1 0 0 0 0 0 0 0 0
18 5.0 30.0 10.0 2.0 0 189 17 0 0 0 0 0 0 0 0 0 1
19 20.0 40.0 10.0 12.0 0 204 86 0 0 1 0 0 0 0 0 0 1
20 15.0 60.0 10.0 17.0 0 187 56 1 1 0 0 0 1 0 1 0 0
21 45.0 65.0 10.0 9.0 0 188 65 0 0 0 1 0 0 0 0 0 0
22 45.0 20.0 10.0 11.0 0 201 32 1 0 0 0 0 0 0 0 0 0
23 45.0 10.0 10.0 18.0 0 193 26 0 0 0 0 0 1 0 0 0 0
24 55.0 5.0 10.0 29.0 68 78 75 0 0 1 1 0 0 0 0 0 0
25 65.0 35.0 10.0 3.0 0 190 89 0 0 0 0 0 0 0 0 0 1
26 65.0 20.0 10.0 6.0 172 182 74 0 1 0 0 0 0 0 1 0 1
27 45.0 30.0 10.0 17.0 0 208 54 0 0 0 1 0 1 0 0 0 0
28 35.0 40.0 10.0 16.0 0 215 29 0 0 0 0 0 0 0 1 0 1
29 41.0 37.0 10.0 16.0 0 213 65 0 0 0 0 1 1 0 1 1 0
30 64.0 42.0 10.0 9.0 0 190 5 0 1 0 0 0 0 0 0 0 1
31 40.0 60.0 10.0 21.0 0 194 83 0 0 0 0 0 1 0 0 0 0
32 31.0 52.0 10.0 27.0 0 202 94 0 1 0 0 0 0 1 0 0 0
33 35.0 69.0 10.0 23.0 0 186 31 0 0 1 0 0 0 0 0 0 0
34 53.0 52.0 10.0 11.0 0 195 58 0 0 0 1 0 1 1 0 1 0
35 65.0 55.0 10.0 14.0 0 183 98 0 0 0 0 0 1 0 0 1 1
36 63.0 65.0 10.0 8.0 0 178 47 0 0 0 1 0 0 0 0 1 0
37 2.0 60.0 10.0 5.0 0 178 79 1 0 0 0 0 0 0 0 0 0
38 20.0 20.0 10.0 8.0 0 198 77 0 0 0 0 0 1 0 0 0 1
39 5.0 5.0 10.0 16.0 83 93 41 0 0 0 1 0 0 0 0 0 1
40 60.0 12.0 10.0 31.0 0 186 88 0 0 0 1 0 0 0 0 0 0
41 40.0 25.0 10.0 9.0 0 208 50 0 1 0 0 0 0 0 0 0 0
42 42.0 7.0 10.0 5.0 0 191 11 0 0 0 0 0 1 0 0 0 0
43 24.0 12.0 10.0 5.0 0 194 22 0 1 0 0 0 0 0 0 0 0
44 23.0 3.0 10.0 7.0 0 185 57 0 0 0 0 1 0 1 0 0 0
45 11.0 14.0 10.0 18.0 69 79 95 0 0 0 0 0 0 0 1 1 0
46 6.0 38.0 10.0 16.0 0 190 86 0 0 0 1 0 0 0 0 0 0
47 2.0 48.0 10.0 1.0 0 184 33 1 1 0 0 0 0 0 0 1 1
48 8.0 56.0 10.0 27.0 0 185 70 1 0 0 0 1 0 0 0 0 1
49 13.0 52.0 10.0 36.0 0 192 55 1 0 1 1 0 0 1 0 0 0
50 6.0 68.0 10.0 30.0 0 176 19 0 0 1 0 0 0 0 0 0 1
51 47.0 47.0 10.0 13.0 0 203 27 0 1 0 0 0 0 0 0 0 1
52 49.0 58.0 10.0 10.0 0 193 29 0 0 1 0 0 0 0 0 0 0
53 27.0 43.0 10.0 9.0 0 208 95 0 0 0 1 1 0 0 0 0 0
54 37.0 31.0 10.0 14.0 95 105 88 0 0 0 0 0 1 0 1 0 0
55 57.0 29.0 10.0 18.0 0 197 39 0 0 0 0 0 0 0 1 0 0
56 63.0 23.0 10.0 2.0 136 146 89 0 0 0 1 0 1 0 1 0 0
57 53.0 12.0 10.0 6.0 0 190 69 0 0 0 0 0 1 0 0 0 0
58 32.0 12.0 10.0 7.0 0 196 60 0 1 0 0 0 0 0 0 0 0
59 36.0 26.0 10.0 18.0 200 210 85 0 1 0 0 0 0 0 1 0 1
60 21.0 24.0 10.0 28.0 0 202 43 1 0 0 0 1 0 0 0 0 0
61 17.0 34.0 10.0 3.0 0 201 95 0 0 0 0 0 0 0 1 0 0
62 12.0 24.0 10.0 13.0 0 194 2 1 1 0 0 1 0 0 0 0 0
63 24.0 58.0 10.0 19.0 58 68 94 0 1 0 0 0 0 1 0 0 0
64 27.0 69.0 10.0 10.0 0 185 50 1 0 0 0 0 0 0 0 0 1
65 15.0 77.0 10.0 9.0 0 173 39 1 0 0 0 0 1 0 1 0 1
66 62.0 77.0 10.0 20.0 0 170 86 0 0 0 0 0 1 0 0 0 0
67 49.0 73.0 10.0 25.0 0 179 24 0 0 0 1 0 0 0 0 0 0
68 67.0 5.0 10.0 25.0 83 93 53 0 0 0 0 0 1 0 0 0 0
69 56.0 39.0 10.0 36.0 0 198 93 1 1 0 1 0 1 0 0 0 0
70 37.0 47.0 10.0 6.0 50 60 95 0 0 0 0 0 1 0 0 0 0
71 37.0 56.0 10.0 5.0 0 198 30 0 0 1 0 0 0 0 0 1 1
72 57.0 68.0 10.0 15.0 0 180 65 0 0 0 1 0 0 0 0 0 0
73 47.0 16.0 10.0 25.0 0 197 42 1 0 1 0 0 0 0 0 0 0
74 44.0 17.0 10.0 9.0 0 199 96 0 1 0 0 1 0 0 0 0 1
75 46.0 13.0 10.0 8.0 149 159 72 0 0 0 0 0 1 0 0 0 0
76 49.0 11.0 10.0 18.0 0 192 29 0 0 0 0 0 1 0 0 0 0
77 49.0 42.0 10.0 13.0 73 83 99 0 0 0 0 0 0 0 1 0 1
78 53.0 43.0 10.0 14.0 179 189 94 0 0 0 0 0 0 0 0 1 0
79 61.0 52.0 10.0 3.0 0 188 33 1 0 1 0 0 0 0 0 0 0
80 57.0 48.0 10.0 23.0 92 102 66 0 0 0 0 0 0 0 1 0 0
81 56.0 37.0 10.0 6.0 0 198 62 0 1 0 0 0 0 0 0 0 0
82 55.0 54.0 10.0 26.0 0 192 94 0 0 1 0 1 0 0 1 0 0
83 15.0 47.0 10.0 16.0 0 196 78 0 1 1 0 1 0 0 0 0 0
84 14.0 37.0 10.0 11.0 0 198 84 0 0 0 0 0 1 0 0 0 0
85 11.0 31.0 10.0 7.0 101 111 49 0 0 0 0 1 1 0 0 0 1
86 16.0 22.0 10.0 41.0 0 196 5 0 0 0 0 0 0 0 1 0 0
87 4.0 18.0 10.0 35.0 0 184 77 0 0 0 0 0 1 0 0 0 0
88 28.0 18.0 10.0 26.0 93 103 75 1 1 0 1 0 0 0 0 0 0
89 26.0 52.0 10.0 9.0 0 200 6 0 0 1 0 0 0 1 0 0 0
90 26.0 35.0 10.0 15.0 0 211 20 1 0 0 1 0 0 1 0 0 0
91 31.0 67.0 10.0 3.0 0 187 38 0 0 0 0 0 1 0 0 0 0
92 15.0 19.0 10.0 1.0 0 194 31 0 0 1 0 0 1 0 0 0 0
93 22.0 22.0 10.0 2.0 18 28 98 1 0 0 0 0 1 1 0 0 0
94 18.0 24.0 10.0 22.0 0 199 46 1 0 0 0 0 0 0 0 0 0
95 26.0 27.0 10.0 27.0 0 207 66 1 1 0 0 0 0 0 0 0 0
96 25.0 24.0 10.0 20.0 0 205 6 1 1 0 0 0 1 1 1 0 0
97 22.0 27.0 10.0 11.0 0 204 19 0 0 0 0 0 1 1 1 0 0
98 25.0 21.0 10.0 12.0 0 202 17 0 0 1 0 0 0 0 0 1 0
99 19.0 21.0 10.0 10.0 0 198 49 0 0 0 0 0 1 0 0 0 0
100 20.0 26.0 10.0 9.0 83 93 52 0 1 0 0 0 0 0 0 0 0
101 18.0 18.0 10.0 17.0 185 195 40 0 1 0 0 0 0 0 0 1 0